91
84
56
88
23
69
0
24
37
38
70
66
63
22
5
12
46
99
3
18
76
34
50
54
13
26
67
87
21
74
48
8
85
32
90
9
33
58
47
64
92
7
80
75
36
14
94
73
81
83
45
28
29
49
78
17
98
57
61
19
51
2
44
43
82
62
96
89
1
97
39
68
10
15
40
77
11
65
95
59
27
52
35
30
16
71
41
93
4
31
42
79
6
72
60
53
55
25
20
86
